5 5
4 55 3 53 1 56 0 98 2 9
3 22 4 13 1 89 2 48 0 18
1 76 4 40 0 17 2 15 3 15
4 79 0 63 2 39 3 13 1 81
4 32 1 9 0 40 2 20 3 90
-1
0 3 4 5
0 3 5
0 2 3 4 5
0 2 5
0 3 4 5
-2
251 390 353
160 263
167 155 159 246
160 305
110 135 255

366 8
22 16 12 3 9
21 10 2 7 19
23 17 13 8 4
5 1 24 18 14
20 0 15 6 11
